data;

set A := 852 506 508 756 102 282 820 702 786 140 294 172 568 476 742 334 430 224 436 824 242 488 178 858 532 646 38 194 162 974 924 182 870 426 116 500 846 376 690 356 410 320 644 982 304 550 42 442 1000 58 732 186 180 454 528 592 560 804 114 368 160 640 632 656;
param T := 16000;

end;
